WARNING: for repeatability, setting FPU to use double precision
============================[ Problem Statistics ]=============================
|                                                                             |
|  Number of variables:           100                                         |
|  Number of clauses:             449                                         |
|  Parse time:                   0.00 s                                       |
|  Eliminated clauses:           0.00 Mb                                      |
|  Simplification time:          0.00 s                                       |
|                                                                             |
============================[ Search Statistics ]==============================
| Conflicts |          ORIGINAL         |          LEARNT          | Progress |
|           |    Vars  Clauses Literals |    Limit  Clauses Lit/Cl |          |
===============================================================================
|       100 |      99      448     1350 |      164      100      9 |  0.010 % |
|       250 |      99      448     1350 |      180      166      6 |  0.031 % |
===============================================================================
restarts              : 3
conflicts             : 313            (115498 /sec)
decisions             : 409            (0.00 % random) (150923 /sec)
propagations          : 7338           (2707749 /sec)
conflict literals     : 2191           (19.63 % deleted)
Memory used           : 13.00 MB
CPU time              : 0.00271 s

SATISFIABLE
